
Gurobi 12.0.3 (linux64) logging started Thu Aug 21 03:56:51 2025

Set parameter LogFile to value "logs/instance-12.txt"
Gurobi Optimizer version 12.0.3 build v12.0.3rc0 (linux64 - "Ubuntu 24.04.3 LTS")

CPU model: Intel(R) Core(TM) i5-8250U CPU @ 1.60GHz, instruction set [SSE2|AVX|AVX2]
Thread count: 4 physical cores, 8 logical processors, using up to 8 threads

Non-default parameters:
TimeLimit  900

Optimize a model with 59900 rows, 20100 columns and 141282 nonzeros
Model fingerprint: 0x073ed4d5
Variable types: 0 continuous, 20100 integer (20100 binary)
Coefficient statistics:
  Matrix range     [1e+00, 1e+00]
  Objective range  [1e+00, 1e+01]
  Bounds range     [1e+00, 1e+00]
  RHS range        [1e+00, 1e+00]
Found heuristic solution: objective 675.0000000
Presolve removed 31197 rows and 909 columns
Presolve time: 1.25s
Presolved: 28703 rows, 19191 columns, 68389 nonzeros
Variable types: 0 continuous, 19191 integer (19191 binary)

Root simplex log...

Iteration    Objective       Primal Inf.    Dual Inf.      Time
   16783    2.8674000e+04   4.906000e+03   0.000000e+00      5s
   20300    2.6325500e+04   0.000000e+00   0.000000e+00      7s

Root relaxation: objective 2.632550e+04, 20300 iterations, 5.43 seconds (4.19 work units)

    Nodes    |    Current Node    |     Objective Bounds      |     Work
 Expl Unexpl |  Obj  Depth IntInf | Incumbent    BestBd   Gap | It/Node Time

     0     0 26325.5000    0 9718  675.00000 26325.5000  3800%     -    7s
H    0     0                    3270.0000000 26325.5000   705%     -    7s
H    0     0                    3299.0000000 26325.5000   698%     -   13s
H    0     0                    3444.0000000 25539.0000   642%     -   13s
     0     0 24563.5000    0 9607 3444.00000 24563.5000   613%     -   18s
     0     0 22951.2500    0 9614 3444.00000 22951.2500   566%     -   26s
     0     0 22402.8750    0 9666 3444.00000 22402.8750   550%     -   32s
     0     0 21538.0000    0 10296 3444.00000 21538.0000   525%     -   48s
     0     0 20611.2837    0 11146 3444.00000 20611.2837   498%     -   77s
     0     0 20584.6667    0 11130 3444.00000 20584.6667   498%     -   84s
     0     0 20584.6667    0 11138 3444.00000 20584.6667   498%     -   85s
     0     0 20584.6667    0 11136 3444.00000 20584.6667   498%     -   86s
     0     0 20584.6667    0 11138 3444.00000 20584.6667   498%     -   86s
     0     0 19698.6249    0 10912 3444.00000 19698.6249   472%     -  140s
H    0     0                    3586.0000000 18658.9588   420%     -  196s
H    0     0                    3706.0000000 18658.9588   403%     -  196s
H    0     0                    3880.0000000 18658.9588   381%     -  196s
H    0     0                    4184.0000000 18658.9588   346%     -  196s
H    0     0                    4230.0000000 18658.9588   341%     -  196s
H    0     0                    4280.0000000 18658.9588   336%     -  196s
H    0     0                    4290.0000000 18658.9588   335%     -  196s
H    0     0                    4293.0000000 18658.9588   335%     -  196s
H    0     0                    4396.0000000 18658.9588   324%     -  196s
H    0     0                    4446.0000000 18658.9588   320%     -  196s
     0     0 18658.9588    0 10284 4446.00000 18658.9588   320%     -  196s
H    0     0                    4467.0000000 17428.6014   290%     -  272s
H    0     0                    4597.0000000 17428.6014   279%     -  272s
H    0     0                    4639.0000000 17428.6014   276%     -  272s
H    0     0                    4682.0000000 17428.6014   272%     -  272s
H    0     0                    4760.0000000 17428.6014   266%     -  272s
H    0     0                    4764.0000000 17428.6014   266%     -  272s
     0     0 17428.6014    0 10337 4764.00000 17428.6014   266%     -  272s
H    0     0                    4831.0000000 16311.2747   238%     -  383s
H    0     0                    4846.0000000 16311.2747   237%     -  383s
H    0     0                    4878.0000000 16311.2747   234%     -  383s
     0     0 16311.2747    0 10477 4878.00000 16311.2747   234%     -  384s
     0     0 15387.3731    0 10930 4878.00000 15387.3731   215%     -  525s
     0     0 14869.5025    0 11594 4878.00000 14869.5025   205%     -  684s
     0     0 14625.5153    0 11770 4878.00000 14625.5153   200%     -  848s
     0     0          -    0      4878.00000 14625.5153   200%     -  900s

Cutting planes:
  Gomory: 2
  Zero half: 403
  RLT: 7939
  BQP: 5808

Explored 1 nodes (466512 simplex iterations) in 900.04 seconds (352.15 work units)
Thread count was 8 (of 8 available processors)

Solution count 10: 4878 4846 4831 ... 4446

Time limit reached
Best objective 4.878000000000e+03, best bound 1.462500000000e+04, gap 199.8155%

Gurobi 12.0.3 (linux64) logging started Thu Aug 21 11:24:21 2025

Set parameter LogFile to value "logs/instance-12.txt"
Gurobi Optimizer version 12.0.3 build v12.0.3rc0 (linux64 - "Ubuntu 24.04.3 LTS")

CPU model: Intel(R) Core(TM) i5-8250U CPU @ 1.60GHz, instruction set [SSE2|AVX|AVX2]
Thread count: 4 physical cores, 8 logical processors, using up to 8 threads

Non-default parameters:
TimeLimit  600

Optimize a model with 59900 rows, 20100 columns and 141282 nonzeros
Model fingerprint: 0x073ed4d5
Variable types: 0 continuous, 20100 integer (20100 binary)
Coefficient statistics:
  Matrix range     [1e+00, 1e+00]
  Objective range  [1e+00, 1e+01]
  Bounds range     [1e+00, 1e+00]
  RHS range        [1e+00, 1e+00]
Found heuristic solution: objective 675.0000000
Presolve removed 31197 rows and 909 columns
Presolve time: 1.15s
Presolved: 28703 rows, 19191 columns, 68389 nonzeros
Variable types: 0 continuous, 19191 integer (19191 binary)

Root simplex log...

Iteration    Objective       Primal Inf.    Dual Inf.      Time
   18183    2.7607000e+04   5.026000e+03   0.000000e+00      5s
   20300    2.6325500e+04   0.000000e+00   0.000000e+00      6s

Root relaxation: objective 2.632550e+04, 20300 iterations, 4.69 seconds (4.19 work units)

    Nodes    |    Current Node    |     Objective Bounds      |     Work
 Expl Unexpl |  Obj  Depth IntInf | Incumbent    BestBd   Gap | It/Node Time

     0     0 26325.5000    0 9718  675.00000 26325.5000  3800%     -    6s
H    0     0                    3270.0000000 26325.5000   705%     -    6s
H    0     0                    3299.0000000 26325.5000   698%     -   13s
H    0     0                    3444.0000000 25539.0000   642%     -   13s
     0     0 24563.5000    0 9607 3444.00000 24563.5000   613%     -   19s
     0     0 22951.2500    0 9614 3444.00000 22951.2500   566%     -   26s
     0     0 22402.8750    0 9666 3444.00000 22402.8750   550%     -   32s
     0     0 21538.0000    0 10296 3444.00000 21538.0000   525%     -   48s
     0     0 20611.2837    0 11146 3444.00000 20611.2837   498%     -   77s
     0     0 20584.6667    0 11130 3444.00000 20584.6667   498%     -   84s
     0     0 20584.6667    0 11138 3444.00000 20584.6667   498%     -   86s
     0     0 20584.6667    0 11136 3444.00000 20584.6667   498%     -   86s
     0     0 20584.6667    0 11138 3444.00000 20584.6667   498%     -   86s
     0     0 19698.6249    0 10912 3444.00000 19698.6249   472%     -  140s
H    0     0                    3586.0000000 18658.9588   420%     -  196s
H    0     0                    3706.0000000 18658.9588   403%     -  196s
H    0     0                    3880.0000000 18658.9588   381%     -  196s
H    0     0                    4184.0000000 18658.9588   346%     -  196s
H    0     0                    4230.0000000 18658.9588   341%     -  196s
H    0     0                    4280.0000000 18658.9588   336%     -  196s
H    0     0                    4290.0000000 18658.9588   335%     -  196s
H    0     0                    4293.0000000 18658.9588   335%     -  196s
H    0     0                    4396.0000000 18658.9588   324%     -  196s
H    0     0                    4446.0000000 18658.9588   320%     -  196s
     0     0 18658.9588    0 10284 4446.00000 18658.9588   320%     -  196s
H    0     0                    4467.0000000 17428.6014   290%     -  273s
H    0     0                    4597.0000000 17428.6014   279%     -  273s
H    0     0                    4639.0000000 17428.6014   276%     -  273s
H    0     0                    4682.0000000 17428.6014   272%     -  273s
H    0     0                    4760.0000000 17428.6014   266%     -  273s
H    0     0                    4764.0000000 17428.6014   266%     -  273s
     0     0 17428.6014    0 10337 4764.00000 17428.6014   266%     -  273s
H    0     0                    4831.0000000 16311.2747   238%     -  387s
H    0     0                    4846.0000000 16311.2747   237%     -  387s
H    0     0                    4878.0000000 16311.2747   234%     -  387s
     0     0 16311.2747    0 10477 4878.00000 16311.2747   234%     -  387s
     0     0 15387.3731    0 10930 4878.00000 15387.3731   215%     -  529s
     0     0          -    0      4878.00000 15387.3731   215%     -  600s

Cutting planes:
  Gomory: 1
  Zero half: 306
  RLT: 7620
  BQP: 5267

Explored 1 nodes (314164 simplex iterations) in 600.04 seconds (235.32 work units)
Thread count was 8 (of 8 available processors)

Solution count 10: 4878 4846 4831 ... 4446

Time limit reached
Best objective 4.878000000000e+03, best bound 1.538700000000e+04, gap 215.4367%
